NAME : eil101.out.tour
COMMENT : Tour for eil101.tsp (Length 725)
TYPE : TOUR
DIMENSION : 101
TOUR_SECTION
99
36
97
91
58
95
98
92
84
90
60
15
43
13
37
85
4
83
16
59
82
44
7
45
46
35
48
63
10
62
31
89
61
9
65
19
29
69
30
87
6
18
47
81
17
51
88
5
94
96
93
12
100
26
27
52
25
11
79
67
76
75
68
0
49
32
80
8
50
70
34
64
33
77
78
2
28
23
53
54
24
3
38
66
22
55
74
40
21
73
71
72
20
39
57
86
1
56
14
42
41
99
-1
EOF